NumberOfAtoms 72

%block LatticeVectors
   24.1507000314950417  -13.9434131260470515    0.0000000000000000
   24.1507000314950417   13.9434131260470515    0.0000000000000000
    0.0000000000000000    0.0000000000000000   37.7945227409938056
%endblock LatticeVectors

AtomicCoordinatesFormat  Fractional

LatticeConstant 1.0 Bohr

%block AtomicCoordinatesAndAtomicSpecies
   0.0000000000000000   0.0000000000000000   0.0000000000000000 1
   0.1666666666666667   0.0000000000000000   0.0000000000000000 1
   0.3333333333333333   0.0000000000000000   0.0000000000000000 1
   0.5000000000000000   0.0000000000000000   0.0000000000000000 1
   0.6666666666666666   0.0000000000000000   0.0000000000000000 1
   0.8333333333333333   0.0000000000000000   0.0000000000000000 1
   0.0000000000000000   0.1666666666666667   0.0000000000000000 1
   0.1666666666666667   0.1666666666666667   0.0000000000000000 1
   0.3333333333333333   0.1666666666666667   0.0000000000000000 1
   0.5000000000000000   0.1666666666666667   0.0000000000000000 1
   0.6666666666666666   0.1666666666666667   0.0000000000000000 1
   0.8333333333333333   0.1666666666666667   0.0000000000000000 1
   0.0000000000000000   0.3333333333333333   0.0000000000000000 1
   0.1666666666666667   0.3333333333333333   0.0000000000000000 1
   0.3333333333333333   0.3333333333333333   0.0000000000000000 1
   0.5000000000000000   0.3333333333333333   0.0000000000000000 1
   0.6666666666666666   0.3333333333333333   0.0000000000000000 1
   0.8333333333333333   0.3333333333333333   0.0000000000000000 1
   0.0000000000000000   0.5000000000000000   0.0000000000000000 1
   0.1666666666666667   0.5000000000000000   0.0000000000000000 1
   0.3333333333333333   0.5000000000000000   0.0000000000000000 1
   0.5000000000000000   0.5000000000000000   0.0000000000000000 1
   0.6666666666666666   0.5000000000000000   0.0000000000000000 1
   0.8333333333333333   0.5000000000000000   0.0000000000000000 1
   0.0000000000000000   0.6666666666666666   0.0000000000000000 1
   0.1666666666666667   0.6666666666666666   0.0000000000000000 1
   0.3333333333333333   0.6666666666666666   0.0000000000000000 1
   0.5000000000000000   0.6666666666666666   0.0000000000000000 1
   0.6666666666666666   0.6666666666666666   0.0000000000000000 1
   0.8333333333333333   0.6666666666666666   0.0000000000000000 1
   0.0000000000000000   0.8333333333333333   0.0000000000000000 1
   0.1666666666666667   0.8333333333333333   0.0000000000000000 1
   0.3333333333333333   0.8333333333333333   0.0000000000000000 1
   0.5000000000000000   0.8333333333333333   0.0000000000000000 1
   0.6666666666666666   0.8333333333333333   0.0000000000000000 1
   0.8333333333333333   0.8333333333333333   0.0000000000000000 1
   0.0555164319248826   0.0555164319248826   0.0000000000000000 1
   0.2221830985915493   0.0555164319248826   0.0000000000000000 1
   0.3888497652582160   0.0555164319248826   0.0000000000000000 1
   0.5555164319248826   0.0555164319248826   0.0000000000000000 1
   0.7221830985915492   0.0555164319248826   0.0000000000000000 1
   0.8888497652582159   0.0555164319248826   0.0000000000000000 1
   0.0555164319248826   0.2221830985915493   0.0000000000000000 1
   0.2221830985915493   0.2221830985915493   0.0000000000000000 1
   0.3888497652582160   0.2221830985915493   0.0000000000000000 1
   0.5555164319248826   0.2221830985915493   0.0000000000000000 1
   0.7221830985915492   0.2221830985915493   0.0000000000000000 1
   0.8888497652582159   0.2221830985915493   0.0000000000000000 1
   0.0555164319248826   0.3888497652582160   0.0000000000000000 1
   0.2221830985915493   0.3888497652582160   0.0000000000000000 1
   0.3888497652582160   0.3888497652582160   0.0000000000000000 1
   0.5555164319248826   0.3888497652582160   0.0000000000000000 1
   0.7221830985915492   0.3888497652582160   0.0000000000000000 1
   0.8888497652582159   0.3888497652582160   0.0000000000000000 1
   0.0555164319248826   0.5555164319248826   0.0000000000000000 1
   0.2221830985915493   0.5555164319248826   0.0000000000000000 1
   0.3888497652582160   0.5555164319248826   0.0000000000000000 1
   0.5555164319248826   0.5555164319248826   0.0000000000000000 1
   0.7221830985915492   0.5555164319248826   0.0000000000000000 1
   0.8888497652582159   0.5555164319248826   0.0000000000000000 1
   0.0555164319248826   0.7221830985915492   0.0000000000000000 1
   0.2221830985915493   0.7221830985915492   0.0000000000000000 1
   0.3888497652582160   0.7221830985915492   0.0000000000000000 1
   0.5555164319248826   0.7221830985915492   0.0000000000000000 1
   0.7221830985915492   0.7221830985915492   0.0000000000000000 1
   0.8888497652582159   0.7221830985915492   0.0000000000000000 1
   0.0555164319248826   0.8888497652582159   0.0000000000000000 1
   0.2221830985915493   0.8888497652582159   0.0000000000000000 1
   0.3888497652582160   0.8888497652582159   0.0000000000000000 1
   0.5555164319248826   0.8888497652582159   0.0000000000000000 1
   0.7221830985915492   0.8888497652582159   0.0000000000000000 1
   0.8888497652582159   0.8888497652582159   0.0000000000000000 1
%endblock AtomicCoordinatesAndAtomicSpecies
