NumberOfAtoms 18
%block LatticeVectors
   12.0753500157475209   -6.9717065630235258    0.0000000000000000
   12.0753500157475209    6.9717065630235258    0.0000000000000000
    0.0000000000000000    0.0000000000000000   37.7945227409938056
%endblock LatticeVectors
AtomicCoordinatesFormat  Fractional
NumberOfSpecies 1
%block ChemicalSpeciesLabel
 1 6 C
%endblock ChemicalSpeciesLabel
LatticeConstant 1.0 Bohr
%block AtomicCoordinatesAndAtomicSpecies
  -0.0004964682870935  -0.0000000000000000  -0.0004964682870935 1
   0.3333333333333333   0.0000000000000000   0.0000000000000000 1
   0.6666666666666666   0.0000000000000000   0.0000000000000000 1
   0.0000000000000000   0.3333333333333333   0.0000000000000000 1
   0.3333333333333333   0.3333333333333333   0.0000000000000000 1
   0.6666666666666666   0.3333333333333334   0.0000000000000000 1
   0.0000000000000000   0.6666666666666666   0.0000000000000000 1
   0.3333333333333333   0.6666666666666666   0.0000000000000000 1
   0.6666666666666666   0.6666666666666666   0.0000000000000000 1
   0.1110328638497653   0.1110328638497653   0.0000000000000000 1
   0.4443661971830987   0.1110328638497653   0.0000000000000000 1
   0.7776995305164319   0.1110328638497653   0.0000000000000000 1
   0.1110328638497653   0.4443661971830987   0.0000000000000000 1
   0.4443661971830986   0.4443661971830986   0.0000000000000000 1
   0.7776995305164319   0.4443661971830986   0.0000000000000000 1
   0.1110328638497653   0.7776995305164319   0.0000000000000000 1
   0.4443661971830987   0.7776995305164319   0.0000000000000000 1
   0.7776995305164320   0.7776995305164320   0.0000000000000000 1
%endblock AtomicCoordinatesAndAtomicSpecies
