NumberOfAtoms 8
%block LatticeVectors
    8.0502333438316800   -4.6478043753490175    0.0000000000000000
    8.0502333438316800    4.6478043753490175    0.0000000000000000
    0.0000000000000000    0.0000000000000000   37.7945227409938056
%endblock LatticeVectors
AtomicCoordinatesFormat  Fractional
NumberOfSpecies 1
%block ChemicalSpeciesLabel
 1 6 C
%endblock ChemicalSpeciesLabel
LatticeConstant 1.0 Bohr
%block AtomicCoordinatesAndAtomicSpecies
   0.0005138630990865   0.0000000000000000   0.0005138630990865 1
   0.5000000000000000   0.0000000000000000   0.0000000000000000 1
   0.0000000000000000   0.5000000000000000   0.0000000000000000 1
   0.5000000000000000   0.5000000000000000   0.0000000000000000 1
   0.1665492957746479   0.1665492957746479   0.0000000000000000 1
   0.6665492957746479   0.1665492957746479   0.0000000000000000 1
   0.1665492957746479   0.6665492957746479   0.0000000000000000 1
   0.6665492957746479   0.6665492957746479   0.0000000000000000 1
%endblock AtomicCoordinatesAndAtomicSpecies
