NumberOfAtoms 32
%block LatticeVectors
   16.1004666876633600   -9.2956087506980349    0.0000000000000000
   16.1004666876633600    9.2956087506980349    0.0000000000000000
    0.0000000000000000    0.0000000000000000   37.7945227409938056
%endblock LatticeVectors
AtomicCoordinatesFormat  Fractional
NumberOfSpecies 1
%block ChemicalSpeciesLabel
 1 6 C
%endblock ChemicalSpeciesLabel
LatticeConstant 1.0 Bohr
%block AtomicCoordinatesAndAtomicSpecies
   0.0004748385029496  -0.0000000000000000   0.0004748385029496 1
   0.2500000000000000   0.0000000000000000   0.0000000000000000 1
   0.5000000000000000   0.0000000000000000   0.0000000000000000 1
   0.7500000000000000   0.0000000000000001   0.0000000000000000 1
   0.0000000000000000   0.2500000000000000   0.0000000000000000 1
   0.2500000000000000   0.2500000000000000   0.0000000000000000 1
   0.5000000000000000   0.2500000000000001   0.0000000000000000 1
   0.7499999999999999   0.2500000000000001   0.0000000000000000 1
   0.0000000000000000   0.5000000000000000   0.0000000000000000 1
   0.2500000000000001   0.5000000000000000   0.0000000000000000 1
   0.5000000000000000   0.5000000000000000   0.0000000000000000 1
   0.7500000000000001   0.5000000000000001   0.0000000000000000 1
   0.0000000000000001   0.7500000000000000   0.0000000000000000 1
   0.2500000000000000   0.7500000000000000   0.0000000000000000 1
   0.5000000000000000   0.7500000000000000   0.0000000000000000 1
   0.7500000000000001   0.7500000000000001   0.0000000000000000 1
   0.0832746478873240   0.0832746478873240   0.0000000000000000 1
   0.3332746478873240   0.0832746478873240   0.0000000000000000 1
   0.5832746478873240   0.0832746478873240   0.0000000000000000 1
   0.8332746478873240   0.0832746478873240   0.0000000000000000 1
   0.0832746478873240   0.3332746478873240   0.0000000000000000 1
   0.3332746478873240   0.3332746478873240   0.0000000000000000 1
   0.5832746478873240   0.3332746478873241   0.0000000000000000 1
   0.8332746478873241   0.3332746478873241   0.0000000000000000 1
   0.0832746478873240   0.5832746478873240   0.0000000000000000 1
   0.3332746478873240   0.5832746478873240   0.0000000000000000 1
   0.5832746478873241   0.5832746478873241   0.0000000000000000 1
   0.8332746478873240   0.5832746478873240   0.0000000000000000 1
   0.0832746478873240   0.8332746478873240   0.0000000000000000 1
   0.3332746478873241   0.8332746478873241   0.0000000000000000 1
   0.5832746478873240   0.8332746478873240   0.0000000000000000 1
   0.8332746478873240   0.8332746478873240   0.0000000000000000 1
%endblock AtomicCoordinatesAndAtomicSpecies
