NumberOfAtoms 50

%block LatticeVectors
   20.1255833595791991  -11.6195109383725441    0.0000000000000000
   20.1255833595791991   11.6195109383725441    0.0000000000000000
    0.0000000000000000    0.0000000000000000   37.7945227409938056
%endblock LatticeVectors

AtomicCoordinatesFormat  Fractional

NumberOfSpecies 1
%block ChemicalSpeciesLabel
 1 6 C
%endblock ChemicalSpeciesLabel

LatticeConstant 1.0 Bohr

%block AtomicCoordinatesAndAtomicSpecies
  -0.0004507800663155  -0.0000000000000000  -0.0004507800663155 1
   0.2000000000000000   0.0000000000000000   0.0000000000000000 1
   0.4000000000000000   0.0000000000000000   0.0000000000000000 1
   0.6000000000000001   0.0000000000000000   0.0000000000000000 1
   0.7999999999999999   0.0000000000000001   0.0000000000000000 1
   0.0000000000000000   0.2000000000000000   0.0000000000000000 1
   0.2000000000000000   0.2000000000000000   0.0000000000000000 1
   0.4000000000000000   0.2000000000000001   0.0000000000000000 1
   0.6000000000000001   0.2000000000000000   0.0000000000000000 1
   0.7999999999999999   0.2000000000000000   0.0000000000000000 1
   0.0000000000000000   0.4000000000000000   0.0000000000000000 1
   0.2000000000000000   0.4000000000000001   0.0000000000000000 1
   0.4000000000000000   0.4000000000000000   0.0000000000000000 1
   0.6000000000000001   0.4000000000000001   0.0000000000000000 1
   0.8000000000000000   0.4000000000000001   0.0000000000000000 1
   0.0000000000000000   0.6000000000000001   0.0000000000000000 1
   0.2000000000000000   0.6000000000000001   0.0000000000000000 1
   0.4000000000000001   0.6000000000000002   0.0000000000000000 1
   0.6000000000000001   0.6000000000000001   0.0000000000000000 1
   0.8000000000000000   0.6000000000000001   0.0000000000000000 1
   0.0000000000000001   0.7999999999999999   0.0000000000000000 1
   0.2000000000000000   0.8000000000000000   0.0000000000000000 1
   0.4000000000000001   0.8000000000000002   0.0000000000000000 1
   0.6000000000000001   0.8000000000000000   0.0000000000000000 1
   0.8000000000000000   0.8000000000000000   0.0000000000000000 1
   0.0666197183098592   0.0666197183098592   0.0000000000000000 1
   0.2666197183098592   0.0666197183098592   0.0000000000000000 1
   0.4666197183098592   0.0666197183098592   0.0000000000000000 1
   0.6666197183098592   0.0666197183098591   0.0000000000000000 1
   0.8666197183098592   0.0666197183098593   0.0000000000000000 1
   0.0666197183098592   0.2666197183098592   0.0000000000000000 1
   0.2666197183098592   0.2666197183098592   0.0000000000000000 1
   0.4666197183098592   0.2666197183098593   0.0000000000000000 1
   0.6666197183098593   0.2666197183098593   0.0000000000000000 1
   0.8666197183098592   0.2666197183098593   0.0000000000000000 1
   0.0666197183098592   0.4666197183098592   0.0000000000000000 1
   0.2666197183098593   0.4666197183098592   0.0000000000000000 1
   0.4666197183098593   0.4666197183098593   0.0000000000000000 1
   0.6666197183098592   0.4666197183098592   0.0000000000000000 1
   0.8666197183098592   0.4666197183098593   0.0000000000000000 1
   0.0666197183098592   0.6666197183098592   0.0000000000000000 1
   0.2666197183098593   0.6666197183098592   0.0000000000000000 1
   0.4666197183098592   0.6666197183098592   0.0000000000000000 1
   0.6666197183098592   0.6666197183098592   0.0000000000000000 1
   0.8666197183098593   0.6666197183098593   0.0000000000000000 1
   0.0666197183098592   0.8666197183098591   0.0000000000000000 1
   0.2666197183098593   0.8666197183098592   0.0000000000000000 1
   0.4666197183098593   0.8666197183098592   0.0000000000000000 1
   0.6666197183098592   0.8666197183098592   0.0000000000000000 1
   0.8666197183098593   0.8666197183098593   0.0000000000000000 1
%endblock AtomicCoordinatesAndAtomicSpecies
